succeed=True
[CUDA] cuda: usage: 5.47 GB
0 :  {link #0 : 1}, {link #1 : 2}, {link #2 : 3},
1 :  {link #0 : 2}, {link #1 : 3}, {link #2 : 0},
2 :  {link #0 : 3}, {link #1 : 0}, {link #2 : 1},
3 :  {link #0 : 0}, {link #1 : 1}, {link #2 : 2},
0 :  {link #0 : 1}, {link #1 : 2}, {link #2 : 3},
1 :  {link #0 : 2}, {link #1 : 3}, {link #2 : 0},
2 :  {link #0 : 3}, {link #1 : 0}, {link #2 : 1},
3 :  {link #0 : 0}, {link #1 : 1}, {link #2 : 2},
0 :  {link #0 : 1}, {link #1 : 2}, {link #2 : 3},
1 :  {link #0 : 2}, {link #1 : 3}, {link #2 : 0},
2 :  {link #0 : 3}, {link #1 : 0}, {link #2 : 1},
3 :  {link #0 : 0}, {link #1 : 1}, {link #2 : 2},
0 : local 80, cpu 0 {link #0 : g1 0}, {link #1 : g2 0}, {link #2 : g3 0},
1 : local 80, cpu 0 {link #0 : g2 0}, {link #1 : g3 0}, {link #2 : g0 0},
2 : local 80, cpu 0 {link #0 : g3 0}, {link #1 : g0 0}, {link #2 : g1 0},
3 : local 80, cpu 0 {link #0 : g0 0}, {link #1 : g1 0}, {link #2 : g2 0},
0 : local 80, cpu 0 {link #0 : g1 0}, {link #1 : g2 0}, {link #2 : g3 0},
1 : local 80, cpu 0 {link #0 : g2 0}, {link #1 : g3 0}, {link #2 : g0 0},
2 : local 80, cpu 0 {link #0 : g3 0}, {link #1 : g0 0}, {link #2 : g1 0},
3 : local 80, cpu 0 {link #0 : g0 0}, {link #1 : g1 0}, {link #2 : g2 0},
0 : local 80, cpu 0 {link #0 : g1 0}, {link #1 : g2 0}, {link #2 : g3 0},
1 : local 80, cpu 0 {link #0 : g2 0}, {link #1 : g3 0}, {link #2 : g0 0},
2 : local 80, cpu 0 {link #0 : g3 0}, {link #1 : g0 0}, {link #2 : g1 0},
3 : local 80, cpu 0 {link #0 : g0 0}, {link #1 : g1 0}, {link #2 : g2 0},
0 :  {link #0 : 1}, {link #1 : 2}, {link #2 : 3},
1 :  {link #0 : 2}, {link #1 : 3}, {link #2 : 0},
2 :  {link #0 : 3}, {link #1 : 0}, {link #2 : 1},
3 :  {link #0 : 0}, {link #1 : 1}, {link #2 : 2},
0 : local 80, cpu 0 {link #0 : g1 0}, {link #1 : g2 0}, {link #2 : g3 0},
1 : local 80, cpu 0 {link #0 : g2 0}, {link #1 : g3 0}, {link #2 : g0 0},
2 : local 80, cpu 0 {link #0 : g3 0}, {link #1 : g0 0}, {link #2 : g1 0},
3 : local 80, cpu 0 {link #0 : g0 0}, {link #1 : g1 0}, {link #2 : g2 0},
Set parameter WLSAccessID
Set parameter WLSSecret
Set parameter LicenseID
Set parameter TimeLimit to value 200
Set parameter MIPGap to value 0.05
Set parameter LogFile to value "cppsolver.log"
Set parameter Threads to value 40
Academic license - for non-commercial use only - registered to xiaoniu.sxn@sjtu.edu.cn
Gurobi Optimizer version 9.5.1 build v9.5.1rc2 (linux64)
Thread count: 40 physical cores, 80 logical processors, using up to 40 threads
Academic license - for non-commercial use only - registered to xiaoniu.sxn@sjtu.edu.cn
Optimize a model with 17600 rows, 5751 columns and 47344 nonzeros
Model fingerprint: 0x398a3a5f
Variable types: 5 continuous, 5746 integer (5746 binary)
Coefficient statistics:
  Matrix range     [8e-09, 3e+03]
  Objective range  [1e+00, 1e+00]
  Bounds range     [1e+00, 1e+00]
  RHS range        [1e+00, 2e+03]
Found heuristic solution: objective 2.000000e+09
Presolve removed 12203 rows and 34 columns
Presolve time: 0.06s
Presolved: 5397 rows, 5717 columns, 21797 nonzeros
Found heuristic solution: objective 101935.80505
Variable types: 5 continuous, 5712 integer (5712 binary)

Root relaxation: objective 2.113362e+04, 7363 iterations, 0.22 seconds (0.18 work units)

    Nodes    |    Current Node    |     Objective Bounds      |     Work
 Expl Unexpl |  Obj  Depth IntInf | Incumbent    BestBd   Gap | It/Node Time

     0     0 21133.6205    0   25 101935.805 21133.6205  79.3%     -    0s
H    0     0                    22554.275059 21133.6205  6.30%     -    0s
H    0     0                    22521.393028 21133.6205  6.16%     -    0s
H    0     0                    21763.175290 21133.6205  2.89%     -    0s

Cutting planes:
  Gomory: 2
  Cover: 2
  MIR: 1
  RLT: 2

Explored 1 nodes (10182 simplex iterations) in 0.52 seconds (0.35 work units)
Thread count was 40 (of 80 available processors)

Solution count 5: 21763.2 22521.4 22554.3 ... 2e+09

Optimal solution found (tolerance 5.00e-02)
Best objective 2.176317529050e+04, best bound 2.113362054146e+04, gap 2.8928%
coll_cache:optimal_local_rate=0.187809,0.204031,0.227717,0.222255,
coll_cache:optimal_remote_rate=0.652329,0.636106,0.61242,0.617883,
coll_cache:optimal_cpu_rate=0.159863,0.159863,0.159863,0.159863,
z=21763.2
test_result:init:feat_nbytes=67182966784
test_result:init:cache_nbytes=4098160640
test_result:init:feat_nbytes=67182966784
test_result:init:cache_nbytes=4098160640
test_result:init:feat_nbytes=67182966784
test_result:init:cache_nbytes=4098160640
test_result:init:feat_nbytes=67182966784
test_result:init:cache_nbytes=4098160640
    [Step(average) Profiler Level 1 E3 S999]
        L1  sample           0.004074 | send           0.000000
        L1  recv             0.000000 | copy           0.020775 | convert time 0.000000 | train  0.009215
        L1  feature nbytes    1.19 GB | label nbytes 0.00 Bytes
        L1  id nbytes      0.00 Bytes | graph nbytes 0.00 Bytes
        L1  miss nbytes    0.00 Bytes | remote nbytes 0.00 Bytes
        L1  num nodes               0 | num samples           0
        L1  seq duration     0.000000 | refresh duration   0.000000
    [Step(average) Profiler Level 2 E3 S999]
        L2  shuffle     0.000000 | core sample  0.000000 | id remap        0.000000
        L2  graph copy  0.000000 | id copy      0.000000 | cache feat copy 0.020775
        L2  last layer sample time 0.000000 | size 0.000000
    [Step(average) Profiler Level 3 E3 S999]
        L3  khop sample coo  0.000000 | khop sort coo      0.000000 | khop count edge     0.000000 | khop compact edge 0.000000
        L3  walk sample coo  0.000000 | walk topk total    0.000000 | walk topk step1     0.000000 | walk topk step2   0.000000
        L3  walk topk step3  0.000000 | walk topk step4    0.000000 | walk topk step5     0.000000
        L3  walk topk step6  0.000000 | walk topk step7    0.000000
        L3  remap unique     0.000000 | remap populate     0.000000 | remap mapnode       0.000000 | remap mapedge     0.000000
        L3  cache get_index  0.000987 | cache copy_index   0.000000 | cache extract_miss  0.000000
        L3  cache copy_miss  0.000000 | cache combine_miss 0.000000 | cache combine cache 0.019752 | cache combine remote 0.000000
        L3  label extract  0.000000
    [Profiler Level Percentiles E3 S999]
        p50.00_tail_logl2featcopy=0.020713
        p90.00_tail_logl2featcopy=0.021449
        p95.00_tail_logl2featcopy=0.021521
        p99.00_tail_logl2featcopy=0.021667
        p99.90_tail_logl2featcopy=0.026032
[CUDA] cuda: usage: 14.25 GB
Rank=1, Graph loaded.
!!!!dist_homo_graph enumerate latency per epoch: 0.014416, per step: 0.000058
presamping
presamping takes 14.092429399490356
Rank=2, Graph loaded.
!!!!dist_homo_graph enumerate latency per epoch: 0.016970, per step: 0.000068
presamping
presamping takes 19.00079655647278
config:eval_tsp="2023-04-14 18:26:06"
config:num_worker=4
config:num_intra_size=4
config:root_dir=/nvme/songxiaoniu/graph-learning/wholegraph
config:graph_name=com-friendster
config:epochs=4
config:batchsize=2000
config:skip_epoch=2
config:local_step=250
config:presc_epoch=2
config:neighbors=10,25
config:hiddensize=256
config:num_layer=2
config:model=sage
config:framework=dgl
config:dataloaderworkers=0
config:dropout=0.5
config:lr=0.003
config:use_nccl=False
config:use_amp=True
config:use_collcache=True
config:cache_percentage=0.06
config:cache_policy=coll_cache_asymm_link
config:omp_thread_num=40
config:unsupervised=True
config:classnum=100
config:global_barrier=<multiprocessing.synchronize.Barrier object at 0x7fd98fd57460>
config:worker_id=0
creating_intra_node_communicator root=0, local_size=4, world_size=4
Rank=0, Graph loaded.
!!!!dist_homo_graph enumerate latency per epoch: 0.011522, per step: 0.000046
epoch=4 total_steps=1000
presamping
presamping takes 18.993290185928345
start training...
[Epoch 0], time=9.840332508087158, loss=0.6931472420692444
[Epoch 1], time=8.517896890640259, loss=0.6931472420692444
[Epoch 2], time=8.536858797073364, loss=0.6931472420692444
[Epoch 3], time=8.534971475601196, loss=0.6931472420692444
|===========================================================================|
|                  PyTorch CUDA memory summary, device ID 0                 |
|---------------------------------------------------------------------------|
|            CUDA OOMs: 0            |        cudaMalloc retries: 0         |
|===========================================================================|
|        Metric         | Cur Usage  | Peak Usage | Tot Alloc  | Tot Freed  |
|---------------------------------------------------------------------------|
| Allocated memory      |   82435 KB |     772 MB |    1648 GB |    1648 GB |
|       from large pool |   75144 KB |     766 MB |    1631 GB |    1631 GB |
|       from small pool |    7291 KB |       8 MB |      16 GB |      16 GB |
|---------------------------------------------------------------------------|
| Active memory         |   82435 KB |     772 MB |    1648 GB |    1648 GB |
|       from large pool |   75144 KB |     766 MB |    1631 GB |    1631 GB |
|       from small pool |    7291 KB |       8 MB |      16 GB |      16 GB |
|---------------------------------------------------------------------------|
| GPU reserved memory   |    3284 MB |    3284 MB |    3284 MB |       0 B  |
|       from large pool |    3272 MB |    3272 MB |    3272 MB |       0 B  |
|       from small pool |      12 MB |      12 MB |      12 MB |       0 B  |
|---------------------------------------------------------------------------|
| Non-releasable memory |   38396 KB |    1290 MB |    1540 GB |    1540 GB |
|       from large pool |   35447 KB |    1286 MB |    1522 GB |    1522 GB |
|       from small pool |    2949 KB |       6 MB |      17 GB |      17 GB |
|---------------------------------------------------------------------------|
| Allocations           |      58    |      74    |  204842    |  204784    |
|       from large pool |      12    |      22    |   62555    |   62543    |
|       from small pool |      46    |      57    |  142287    |  142241    |
|---------------------------------------------------------------------------|
| Active allocs         |      58    |      74    |  204842    |  204784    |
|       from large pool |      12    |      22    |   62555    |   62543    |
|       from small pool |      46    |      57    |  142287    |  142241    |
|---------------------------------------------------------------------------|
| GPU reserved segments |      21    |      21    |      21    |       0    |
|       from large pool |      15    |      15    |      15    |       0    |
|       from small pool |       6    |       6    |       6    |       0    |
|---------------------------------------------------------------------------|
| Non-releasable allocs |      23    |      37    |   72587    |   72564    |
|       from large pool |       9    |      18    |   35638    |   35629    |
|       from small pool |      14    |      24    |   36949    |   36935    |
|---------------------------------------------------------------------------|
| Oversize allocations  |       0    |       0    |       0    |       0    |
|---------------------------------------------------------------------------|
| Oversize GPU segments |       0    |       0    |       0    |       0    |
|===========================================================================|

[TRAIN_TIME] train time is 35.439167 seconds
[EPOCH_TIME] 8.859792 seconds, maybe large due to not enough epoch skipped.
[EPOCH_TIME] 8.536044 seconds
Rank=3, Graph loaded.
!!!!dist_homo_graph enumerate latency per epoch: 0.009543, per step: 0.000038
presamping
presamping takes 16.719502449035645

